Data path: /scratch/opt/lxu/CFLG/benchmarks/random_B
Instance: r_30_0.3_131.txt
Result path: /scratch/opt/lxu/CFLG/results/random_B
Solver: Gurobi
Time limit: 7200
Formulation: LEFPA
Cover: Small
julia --project=. src/main.jl /scratch/opt/lxu/CFLG/benchmarks/random_B r_30_0.3_131.txt /scratch/opt/lxu/CFLG/results/random_B Gurobi 7200 LEFPA Small
The latest version of Julia in the `release` channel is 1.11.5+0.x64.linux.gnu. You currently have `1.11.4+0.x64.linux.gnu` installed. Run:

  juliaup update

in your terminal shell to install Julia 1.11.5+0.x64.linux.gnu and update the `release` channel to that version.
/scratch/opt/lxu/CFLG/benchmarks/random_B Gurobi 7200.0 /scratch/opt/lxu/CFLG/results/random_B r_30_0.3_131.txt LEFPA Small
/scratch/opt/lxu/CFLG/benchmarks/random_B/r_30_0.3_131.txt

 read graph
data loaded


after absorb:30 30

max_piece:8
problem_graph/original graph: node: 40/30 edge: 141/131 dlt: 0.15109708045414358 break_avg_len: 0.5615239018295833 break_max_len: 0.996803218117645Vbar/V, Ebar/E(40, 40, 141, 141)
Set parameter TokenServer to value "solice01.zib.de"
Set parameter Threads to value 1
Set parameter OutputFlag to value 1
Gurobi Optimizer version 12.0.1 build v12.0.1rc0 (linux64 - "Debian GNU/Linux 12 (bookworm)")

CPU model: Intel(R) Xeon(R) Gold 5222 CPU @ 3.80GHz, instruction set [SSE2|AVX|AVX2|AVX512]
Thread count: 8 physical cores, 16 logical processors, using up to 1 threads

Non-default parameters:
Threads  1

Optimize a model with 181 rows, 423 columns and 705 nonzeros
Model fingerprint: 0x68723bd7
Coefficient statistics:
  Matrix range     [1e+00, 1e+00]
  Objective range  [1e+00, 1e+00]
  Bounds range     [1e+00, 1e+00]
  RHS range        [0e+00, 0e+00]
Presolve removed 181 rows and 423 columns
Presolve time: 0.00s
Presolve: All rows and columns removed
Iteration    Objective       Primal Inf.    Dual Inf.      Time
       0   -0.0000000e+00   0.000000e+00   0.000000e+00      0s

Solved in 0 iterations and 0.00 seconds (0.00 work units)
Optimal objective -0.000000000e+00

User-callback calls 35, time in user-callback 0.00 sec
elapsed CPU time: 1.028687 seconds
Set parameter TokenServer to value "solice01.zib.de"
Set parameter Threads to value 1
Set parameter OutputFlag to value 1
Set parameter MIPGap to value 0.0001
Set parameter MIPGapAbs to value 0.999998
Set parameter TimeLimit to value 7198.971313

 more cuts: false 0.15109708045414358 false
is_attach:trueformulation:LEFPA0 141 0

 model loaded

Gurobi Optimizer version 12.0.1 build v12.0.1rc0 (linux64 - "Debian GNU/Linux 12 (bookworm)")

CPU model: Intel(R) Xeon(R) Gold 5222 CPU @ 3.80GHz, instruction set [SSE2|AVX|AVX2|AVX512]
Thread count: 8 physical cores, 16 logical processors, using up to 1 threads

Non-default parameters:
TimeLimit  7198.971313
MIPGapAbs  0.999998
Threads  1

Optimize a model with 1688 rows, 1206 columns and 4521 nonzeros
Model fingerprint: 0xa298d764
Variable types: 322 continuous, 884 integer (884 binary)
Coefficient statistics:
  Matrix range     [1e-01, 1e+00]
  Objective range  [1e+00, 1e+00]
  Bounds range     [1e-01, 1e+00]
  RHS range        [1e-01, 1e+00]
Found heuristic solution: objective 141.0000000
Presolve removed 1688 rows and 1206 columns
Presolve time: 0.00s
Presolve: All rows and columns removed

Explored 0 nodes (0 simplex iterations) in 0.00 seconds (0.00 work units)
Thread count was 1 (of 16 available processors)

Solution count 2: 121 141 

Optimal solution found (tolerance 1.00e-04)
Warning: max constraint violation (1.0000e-06) exceeds tolerance
Best objective 1.210000000000e+02, best bound 1.210000000000e+02, gap 0.0000%

User-callback calls 433, time in user-callback 0.00 sec

 sepatime0 0 0
121.0Stat(MathOptInterface.OPTIMAL, 121.0, 121.0, 0.0, 0.0, 1.028687, 0.0033419132232666016, 0, Main.CFLG.LEFPA, "", #undef)
